/*********************************************
 * OPL 12.7.0.0 Data
 * Author: Amanda
 * Creation Date: 9 kwi 2017 at 11:38:48
 *********************************************/
 
n = 5;
s = 1;
t = 5;
A = {<1,2>, <1,3>, <1,4>, <2,3>, <2,4>, <3,4>, <3,5>, <4,5>};
Cost = [3 4 1 4 2 1 2 4];


//n=8;
//s=1;
//t=8;
//A={<1,2>, <1,4>, <1,7>, <2,3>, <2,5>, <2,6>, <2,8>, <3,8>, <3,5>, <3,7>, <4,7>, <5,6>, <5,7>, <6,7>, <7,8>};
//Cost=[5 9 3 9 8 6 7 3 4 5 8 2 1 6 9];
